c Circuit-CNF generated by TG-PRO v1.0 (c) Huan Chen and Joao Marques-Silva
p cnf 530 1496
-1 -2 0
-1 -3 0
1 2 3 0
-4 -2 0
-4 -5 0
4 2 5 0
-6 -7 0
-6 -8 0
6 7 8 0
-9 -10 0
-9 -11 0
9 10 11 0
-12 -13 0
-12 -14 0
12 13 14 0
-15 -16 0
-15 -17 0
15 16 17 0
-18 -19 0
-18 -20 0
18 19 20 0
21 22 0
21 23 0
-21 -22 -23 0
-24 -25 0
-24 -26 0
24 25 26 0
-27 -19 0
-27 -28 0
27 19 28 0
-29 -19 0
-29 -30 0
29 19 30 0
-31 -32 0
-31 -33 0
31 32 33 0
-34 -35 0
-34 -36 0
34 35 36 0
-37 -19 0
-37 -38 0
37 19 38 0
39 40 0
39 41 0
-39 -40 -41 0
-42 -43 0
-42 -44 0
42 43 44 0
-45 -46 0
-45 -47 0
45 46 47 0
-48 -2 0
-48 -49 0
48 2 49 0
50 51 0
50 52 0
-50 -51 -52 0
-53 54 0
-53 55 0
53 -54 -55 0
-56 57 0
-56 58 0
56 -57 -58 0
-59 60 0
-59 61 0
59 -60 -61 0
-62 63 0
-62 64 0
62 -63 -64 0
-65 66 0
-65 67 0
65 -66 -67 0
55 68 0
-55 -68 0
58 68 0
-58 -68 0
61 68 0
-61 -68 0
64 68 0
-64 -68 0
67 68 0
-67 -68 0
69 70 0
-69 -70 0
71 72 0
-71 -72 0
73 74 0
-73 -74 0
75 76 0
-75 -76 0
77 78 0
-77 -78 0
79 80 0
-79 -80 0
81 82 0
-81 -82 0
83 84 0
-83 -84 0
85 86 0
-85 -86 0
87 88 0
-87 -88 0
89 90 0
-89 -90 0
91 92 0
-91 -92 0
93 94 0
-93 -94 0
95 96 0
-95 -96 0
97 98 0
-97 -98 0
99 100 0
-99 -100 0
101 102 0
-101 -102 0
103 104 0
-103 -104 0
105 106 0
-105 -106 0
2 19 0
-2 -19 0
54 -107 0
54 -108 0
-54 107 108 0
57 109 0
57 110 0
-57 -109 -110 0
60 111 0
60 112 0
-60 -111 -112 0
63 113 0
63 114 0
-63 -113 -114 0
66 115 0
66 116 0
-66 -115 -116 0
-117 99 0
-117 96 0
117 -99 -96 0
-118 119 0
-118 99 0
118 -119 -99 0
-120 121 0
-120 104 0
120 -121 -104 0
-122 123 0
-122 19 0
122 -123 -19 0
-124 125 0
-124 2 0
124 -125 -2 0
-126 127 0
-126 2 0
126 -127 -2 0
-128 129 0
-128 102 0
128 -129 -102 0
-130 104 0
-130 101 0
130 -104 -101 0
-131 -19 0
-131 -100 0
131 19 100 0
-132 133 0
-132 131 0
132 -133 -131 0
-134 102 0
-134 97 0
134 -102 -97 0
-135 102 0
-135 92 0
135 -102 -92 0
-136 -137 0
-136 -93 0
136 137 93 0
-138 -139 0
-138 -104 0
138 139 104 0
-140 -141 0
-140 -142 0
140 141 142 0
-143 144 0
-143 140 0
143 -144 -140 0
-145 -146 0
-145 -147 0
145 146 147 0
-148 149 0
-148 145 0
148 -149 -145 0
-150 -151 0
-150 -152 0
150 151 152 0
-153 154 0
-153 150 0
153 -154 -150 0
-155 -156 0
-155 -157 0
155 156 157 0
-158 95 0
-158 155 0
158 -95 -155 0
-159 160 0
-159 2 0
159 -160 -2 0
-161 162 0
-161 19 0
161 -162 -19 0
-163 106 0
-163 19 0
163 -106 -19 0
-157 100 0
-157 19 0
157 -100 -19 0
-164 19 0
-164 99 0
164 -19 -99 0
-165 166 0
-165 19 0
165 -166 -19 0
-167 168 0
-167 99 0
167 -168 -99 0
-141 77 0
-141 73 0
141 -77 -73 0
-142 75 0
-142 77 0
142 -75 -77 0
-169 -170 0
-169 -171 0
169 170 171 0
-172 173 0
-172 169 0
172 -173 -169 0
174 175 0
174 94 0
-174 -175 -94 0
-176 101 0
-176 174 0
176 -101 -174 0
-177 -178 0
-177 -179 0
177 178 179 0
-180 95 0
-180 177 0
180 -95 -177 0
-181 182 0
-181 2 0
181 -182 -2 0
-183 162 0
-183 19 0
183 -162 -19 0
-184 106 0
-184 19 0
184 -106 -19 0
-179 100 0
-179 19 0
179 -100 -19 0
-185 19 0
-185 99 0
185 -19 -99 0
-170 78 0
-170 2 0
170 -78 -2 0
-171 76 0
-171 2 0
171 -76 -2 0
-186 100 0
-186 19 0
186 -100 -19 0
-187 -188 0
-187 -81 0
187 188 81 0
-189 190 0
-189 187 0
189 -190 -187 0
-191 192 0
-191 19 0
191 -192 -19 0
-193 194 0
-193 99 0
193 -194 -99 0
-195 -196 0
-195 -101 0
195 196 101 0
-197 198 0
-197 195 0
197 -198 -195 0
-199 -200 0
-199 -201 0
199 200 201 0
-202 203 0
-202 199 0
202 -203 -199 0
-204 205 0
-204 2 0
204 -205 -2 0
-206 207 0
-206 99 0
206 -207 -99 0
-201 100 0
-201 19 0
201 -100 -19 0
-208 -100 0
-208 -162 0
208 100 162 0
209 210 0
209 211 0
-209 -210 -211 0
-212 213 0
-212 209 0
212 -213 -209 0
-214 -215 0
-214 -216 0
214 215 216 0
-217 103 0
-217 214 0
217 -103 -214 0
-218 -219 0
-218 -220 0
218 219 220 0
-215 98 0
-215 218 0
215 -98 -218 0
221 222 0
221 91 0
-221 -222 -91 0
-223 103 0
-223 221 0
223 -103 -221 0
-224 225 0
-224 2 0
224 -225 -2 0
-226 93 0
-226 99 0
226 -93 -99 0
-227 96 0
-227 103 0
227 -96 -103 0
-228 94 0
-228 103 0
228 -94 -103 0
-219 229 0
-219 19 0
219 -229 -19 0
-220 101 0
-220 2 0
220 -101 -2 0
-230 231 0
-230 2 0
230 -231 -2 0
-232 233 0
-232 19 0
232 -233 -19 0
-234 103 0
-234 99 0
234 -103 -99 0
-147 103 0
-147 101 0
147 -103 -101 0
235 236 0
235 237 0
-235 -236 -237 0
-238 239 0
-238 235 0
238 -239 -235 0
-240 -241 0
-240 -242 0
240 241 242 0
-243 100 0
-243 240 0
243 -100 -240 0
244 245 0
244 101 0
-244 -245 -101 0
-246 247 0
-246 244 0
246 -247 -244 0
248 249 0
248 102 0
-248 -249 -102 0
-250 103 0
-250 248 0
250 -103 -248 0
-242 101 0
-242 93 0
242 -101 -93 0
-251 2 0
-251 93 0
251 -2 -93 0
-252 -253 0
-252 -102 0
252 253 102 0
-254 255 0
-254 252 0
254 -255 -252 0
-256 -257 0
-256 -258 0
256 257 258 0
-259 260 0
-259 256 0
259 -260 -256 0
261 262 0
261 263 0
-261 -262 -263 0
-264 265 0
-264 261 0
264 -265 -261 0
-266 267 0
-266 2 0
266 -267 -2 0
-268 269 0
-268 95 0
268 -269 -95 0
-270 95 0
-270 19 0
270 -95 -19 0
-152 97 0
-152 19 0
152 -97 -19 0
-257 101 0
-257 2 0
257 -101 -2 0
-258 101 0
-258 99 0
258 -101 -99 0
271 272 0
271 273 0
-271 -272 -273 0
-274 98 0
-274 271 0
274 -98 -271 0
-275 -102 0
-275 -95 0
275 102 95 0
22 -276 0
22 -275 0
-22 276 275 0
277 278 0
277 98 0
-277 -278 -98 0
279 280 0
279 281 0
-279 -280 -281 0
282 -283 0
282 -279 0
-282 283 279 0
284 285 0
284 286 0
-284 -285 -286 0
287 -288 0
287 -284 0
-287 288 284 0
-289 -158 0
-289 -290 0
289 158 290 0
291 -292 0
291 -289 0
-291 292 289 0
-293 -186 0
-293 -95 0
293 186 95 0
294 -295 0
294 -293 0
-294 295 293 0
296 297 0
296 101 0
-296 -297 -101 0
-298 -189 0
-298 -97 0
298 189 97 0
299 -300 0
299 -298 0
-299 300 298 0
301 -302 0
301 -294 0
-301 302 294 0
-303 -180 0
-303 -304 0
303 180 304 0
305 -306 0
305 -303 0
-305 306 303 0
307 308 0
307 102 0
-307 -308 -102 0
-309 -310 0
-309 -83 0
309 310 83 0
311 -312 0
311 -309 0
-311 312 309 0
313 314 0
313 315 0
-313 -314 -315 0
316 -317 0
316 -313 0
-316 317 313 0
-318 -319 0
-318 -320 0
318 319 320 0
321 -96 0
321 -318 0
-321 96 318 0
322 323 0
322 324 0
-322 -323 -324 0
325 -326 0
325 -322 0
-325 326 322 0
-327 -328 0
-327 -264 0
327 328 264 0
329 -96 0
329 -327 0
-329 96 327 0
-330 -331 0
-330 -332 0
330 331 332 0
333 -97 0
333 -330 0
-333 97 330 0
-108 -334 0
-108 -335 0
108 334 335 0
336 337 0
336 82 0
-336 -337 -82 0
338 -339 0
338 -336 0
-338 339 336 0
340 -341 0
340 -106 0
-340 341 106 0
237 -2 0
237 -94 0
-237 2 94 0
342 -343 0
342 -2 0
-342 343 2 0
344 -95 0
344 -19 0
-344 95 19 0
345 -94 0
345 -19 0
-345 94 19 0
245 -346 0
245 -81 0
-245 346 81 0
347 -348 0
347 -2 0
-347 348 2 0
349 -104 0
349 -19 0
-349 104 19 0
350 -104 0
350 -99 0
-350 104 99 0
351 -78 0
351 -74 0
-351 78 74 0
352 -76 0
352 -74 0
-352 76 74 0
353 -76 0
353 -78 0
-353 76 78 0
354 -355 0
354 -19 0
-354 355 19 0
356 -357 0
356 -19 0
-356 357 19 0
281 -95 0
281 -19 0
-281 95 19 0
358 -95 0
358 -102 0
-358 95 102 0
359 -92 0
359 -97 0
-359 92 97 0
-360 -361 0
-360 -95 0
360 361 95 0
362 -101 0
362 -360 0
-362 101 360 0
285 -98 0
285 -19 0
-285 98 19 0
286 -98 0
286 -100 0
-286 98 100 0
-363 -364 0
-363 -106 0
363 364 106 0
365 -100 0
365 -363 0
-365 100 363 0
366 -367 0
366 -104 0
-366 367 104 0
368 -369 0
368 -100 0
-368 369 100 0
370 82 0
370 70 0
-370 -82 -70 0
371 372 0
371 373 0
-371 -372 -373 0
374 -375 0
374 -371 0
-374 375 371 0
376 -19 0
376 -100 0
-376 19 100 0
372 -96 0
372 -99 0
-372 96 99 0
373 -94 0
373 -99 0
-373 94 99 0
210 -377 0
210 -2 0
-210 377 2 0
211 -378 0
211 -102 0
-211 378 102 0
379 -380 0
379 -19 0
-379 380 19 0
381 -382 0
381 -19 0
-381 382 19 0
383 -384 0
383 -2 0
-383 384 2 0
385 -91 0
385 -101 0
-385 91 101 0
386 -100 0
386 -2 0
-386 100 2 0
387 -72 0
387 -100 0
-387 72 100 0
388 -97 0
388 -2 0
-388 97 2 0
389 -92 0
389 -104 0
-389 92 104 0
390 -96 0
390 -103 0
-390 96 103 0
324 -89 0
324 -103 0
-324 89 103 0
-391 -392 0
-391 -95 0
391 392 95 0
393 -101 0
393 -391 0
-393 101 391 0
394 19 0
394 99 0
-394 -19 -99 0
395 -396 0
395 -394 0
-395 396 394 0
397 -19 0
397 -99 0
-397 19 99 0
263 -19 0
263 -72 0
-263 19 72 0
398 358 0
398 359 0
-398 -358 -359 0
399 -400 0
399 -398 0
-399 400 398 0
-401 -2 0
-401 -99 0
401 2 99 0
402 -403 0
402 -401 0
-402 403 401 0
-404 -405 0
-404 -135 0
404 405 135 0
406 -407 0
406 -404 0
-406 407 404 0
408 2 0
408 99 0
-408 -2 -99 0
40 -409 0
40 -408 0
-40 409 408 0
410 19 0
410 100 0
-410 -19 -100 0
41 -411 0
41 -410 0
-41 411 410 0
47 412 0
47 94 0
-47 -412 -94 0
-413 -93 0
-413 -414 0
413 93 414 0
14 415 0
14 413 0
-14 -415 -413 0
26 416 0
26 71 0
-26 -416 -71 0
-23 -417 0
-23 -130 0
23 417 130 0
20 418 0
20 95 0
-20 -418 -95 0
44 419 0
44 72 0
-44 -419 -72 0
-420 -421 0
-420 -422 0
420 421 422 0
110 423 0
110 420 0
-110 -423 -420 0
424 366 0
424 368 0
-424 -366 -368 0
112 425 0
112 424 0
-112 -425 -424 0
-315 -426 0
-315 -228 0
315 426 228 0
-427 -103 0
-427 -91 0
427 103 91 0
116 393 0
116 427 0
-116 -393 -427 0
-114 -197 0
-114 -202 0
114 197 202 0
414 428 0
414 91 0
-414 -428 -91 0
422 429 0
422 97 0
-422 -429 -97 0
216 430 0
216 385 0
-216 -430 -385 0
431 432 0
431 102 0
-431 -432 -102 0
433 434 0
433 101 0
-433 -434 -101 0
38 435 0
38 95 0
-38 -435 -95 0
30 436 0
30 94 0
-30 -436 -94 0
-273 -437 0
-273 -81 0
273 437 81 0
33 438 0
33 91 0
-33 -438 -91 0
28 439 0
28 95 0
-28 -439 -95 0
36 440 0
36 441 0
-36 -440 -441 0
-442 -104 0
-442 -96 0
442 104 96 0
8 443 0
8 442 0
-8 -443 -442 0
52 362 0
52 444 0
-52 -362 -444 0
-444 -103 0
-444 -91 0
444 103 91 0
49 445 0
49 95 0
-49 -445 -95 0
17 446 0
17 98 0
-17 -446 -98 0
5 447 0
5 95 0
-5 -447 -95 0
3 448 0
3 94 0
-3 -448 -94 0
-290 -164 0
-290 -449 0
290 164 449 0
-304 -185 0
-304 -450 0
304 185 450 0
-320 -223 0
-320 -431 0
320 223 431 0
-332 -251 0
-332 -433 0
332 251 433 0
-335 -118 0
-335 -120 0
335 118 120 0
-449 -165 0
-449 -167 0
449 165 167 0
-450 -191 0
-450 -193 0
450 191 193 0
-11 -122 0
-11 -124 0
11 122 124 0
451 -19 0
451 -100 0
-451 19 100 0
7 -451 0
7 -102 0
-7 451 102 0
452 -100 0
452 -96 0
-452 100 96 0
10 -452 0
10 -105 0
-10 452 105 0
453 -19 0
453 -99 0
-453 19 99 0
13 -453 0
13 -101 0
-13 453 101 0
16 -2 0
16 -99 0
-16 2 99 0
25 -19 0
25 -100 0
-25 19 100 0
32 -274 0
32 -2 0
-32 274 2 0
454 -19 0
454 -99 0
-454 19 99 0
35 -454 0
35 -102 0
-35 454 102 0
43 -19 0
43 -100 0
-43 19 100 0
46 -19 0
46 -99 0
-46 19 99 0
-455 399 0
-455 402 0
455 -399 -402 0
-51 455 0
-51 406 0
51 -455 -406 0
456 -143 0
456 -148 0
-456 143 148 0
107 -456 0
107 -153 0
-107 456 153 0
-457 282 0
-457 287 0
457 -282 -287 0
-109 457 0
-109 291 0
109 -457 -291 0
-458 299 0
-458 301 0
458 -299 -301 0
-111 458 0
-111 305 0
111 -458 -305 0
-459 311 0
-459 316 0
459 -311 -316 0
-113 459 0
-113 321 0
113 -459 -321 0
-460 325 0
-460 329 0
460 -325 -329 0
-115 460 0
-115 333 0
115 -460 -333 0
-461 106 0
-461 95 0
461 -106 -95 0
-119 461 0
-119 104 0
119 -461 -104 0
-121 89 0
-121 96 0
121 -89 -96 0
-123 104 0
-123 102 0
123 -104 -102 0
-125 103 0
-125 101 0
125 -103 -101 0
-462 96 0
-462 104 0
462 -96 -104 0
-127 462 0
-127 99 0
127 -462 -99 0
-129 95 0
-129 103 0
129 -95 -103 0
-463 101 0
-463 98 0
463 -101 -98 0
-133 463 0
-133 105 0
133 -463 -105 0
137 -96 0
137 -97 0
-137 96 97 0
464 -19 0
464 -99 0
-464 19 99 0
139 -464 0
139 -101 0
-139 464 101 0
-465 91 0
-465 136 0
465 -91 -136 0
-144 465 0
-144 138 0
144 -465 -138 0
466 -230 0
466 -232 0
-466 230 232 0
146 -466 0
146 -234 0
-146 466 234 0
-467 96 0
-467 98 0
467 -96 -98 0
-149 467 0
-149 91 0
149 -467 -91 0
468 -266 0
468 -268 0
-468 266 268 0
151 -468 0
151 -270 0
-151 468 270 0
-469 99 0
-469 101 0
469 -99 -101 0
-154 469 0
-154 103 0
154 -469 -103 0
470 -159 0
470 -161 0
-470 159 161 0
156 -470 0
156 -163 0
-156 470 163 0
-160 72 0
-160 99 0
160 -72 -99 0
-471 89 0
-471 96 0
471 -89 -96 0
-166 471 0
-166 100 0
166 -471 -100 0
-168 91 0
-168 96 0
168 -91 -96 0
-472 100 0
-472 102 0
472 -100 -102 0
-173 472 0
-173 94 0
173 -472 -94 0
-473 19 0
-473 100 0
473 -19 -100 0
-175 473 0
-175 95 0
175 -473 -95 0
474 -181 0
474 -183 0
-474 181 183 0
178 -474 0
178 -184 0
-178 474 184 0
-182 72 0
-182 99 0
182 -72 -99 0
188 -95 0
188 -93 0
-188 95 93 0
-475 70 0
-475 86 0
475 -70 -86 0
-190 475 0
-190 88 0
190 -475 -88 0
-476 89 0
-476 96 0
476 -89 -96 0
-192 476 0
-192 100 0
192 -476 -100 0
-194 91 0
-194 96 0
194 -91 -96 0
196 -2 0
196 -99 0
-196 2 99 0
-477 104 0
-477 96 0
477 -104 -96 0
-198 477 0
-198 89 0
198 -477 -89 0
200 -204 0
200 -206 0
-200 204 206 0
-478 101 0
-478 104 0
478 -101 -104 0
-203 478 0
-203 91 0
203 -478 -91 0
-205 98 0
-205 99 0
205 -98 -99 0
-207 93 0
-207 98 0
207 -93 -98 0
-479 80 0
-479 105 0
479 -80 -105 0
-213 479 0
-213 208 0
213 -479 -208 0
-222 2 0
-222 100 0
222 -2 -100 0
-225 94 0
-225 96 0
225 -94 -96 0
-480 94 0
-480 102 0
480 -94 -102 0
-229 480 0
-229 99 0
229 -480 -99 0
-231 102 0
-231 100 0
231 -102 -100 0
-233 104 0
-233 102 0
233 -104 -102 0
-236 338 0
-236 340 0
236 -338 -340 0
-239 103 0
-239 95 0
239 -103 -95 0
241 -246 0
241 -250 0
-241 246 250 0
-247 104 0
-247 96 0
247 -104 -96 0
-481 342 0
-481 344 0
481 -342 -344 0
-249 481 0
-249 345 0
249 -481 -345 0
253 -19 0
253 -99 0
-253 19 99 0
-482 103 0
-482 94 0
482 -103 -94 0
-255 482 0
-255 441 0
255 -482 -441 0
-260 103 0
-260 92 0
260 -103 -92 0
-262 395 0
-262 397 0
262 -395 -397 0
-265 102 0
-265 104 0
265 -102 -104 0
-267 90 0
-267 96 0
267 -90 -96 0
-269 105 0
-269 97 0
269 -105 -97 0
-483 70 0
-483 86 0
483 -70 -86 0
-272 483 0
-272 88 0
272 -483 -88 0
484 -2 0
484 -99 0
-484 2 99 0
276 -484 0
276 -104 0
-276 484 104 0
-485 100 0
-485 102 0
485 -100 -102 0
-278 485 0
-278 103 0
278 -485 -103 0
-280 354 0
-280 356 0
280 -354 -356 0
486 -93 0
486 -92 0
-486 93 92 0
283 -486 0
283 -277 0
-283 486 277 0
487 -102 0
487 -103 0
-487 102 103 0
288 -487 0
288 -92 0
-288 487 92 0
292 -101 0
292 -103 0
-292 101 103 0
295 -172 0
295 -176 0
-295 172 176 0
-297 19 0
-297 100 0
297 -19 -100 0
488 -103 0
488 -92 0
-488 103 92 0
300 -488 0
300 -296 0
-300 488 296 0
489 -104 0
489 -97 0
-489 104 97 0
302 -489 0
302 -92 0
-302 489 92 0
306 -101 0
306 -103 0
-306 101 103 0
-308 19 0
-308 100 0
308 -19 -100 0
310 -97 0
310 -93 0
-310 97 93 0
490 -104 0
490 -92 0
-490 104 92 0
312 -490 0
312 -307 0
-312 490 307 0
-314 374 0
-314 376 0
314 -374 -376 0
491 -102 0
491 -97 0
-491 102 97 0
317 -491 0
317 -92 0
-317 491 92 0
319 -212 0
319 -217 0
-319 212 217 0
-323 389 0
-323 390 0
323 -389 -390 0
492 -2 0
492 -99 0
-492 2 99 0
326 -492 0
326 -101 0
-326 492 101 0
328 -254 0
328 -259 0
-328 254 259 0
331 -238 0
331 -243 0
-331 238 243 0
493 -117 0
493 -2 0
-493 117 2 0
334 -493 0
334 -101 0
-334 493 101 0
-494 2 0
-494 102 0
494 -2 -102 0
-337 494 0
-337 94 0
337 -494 -94 0
495 -70 0
495 -86 0
-495 70 86 0
339 -495 0
339 -87 0
-339 495 87 0
341 -100 0
341 -102 0
-341 100 102 0
343 -83 0
343 -93 0
-343 83 93 0
496 -87 0
496 -85 0
-496 87 85 0
346 -496 0
346 -69 0
-346 496 69 0
348 -93 0
348 -103 0
-348 93 103 0
497 -75 0
497 -78 0
-497 75 78 0
355 -497 0
355 -74 0
-355 497 74 0
498 -76 0
498 -77 0
-498 76 77 0
357 -498 0
357 -74 0
-357 498 74 0
361 -19 0
361 -100 0
-361 19 100 0
499 -98 0
499 -162 0
-499 98 162 0
364 -499 0
364 -79 0
-364 499 79 0
500 -441 0
500 -93 0
-500 441 93 0
367 -500 0
367 -96 0
-367 500 96 0
369 -96 0
369 -104 0
-369 96 104 0
501 -85 0
501 -87 0
-501 85 87 0
375 -501 0
375 -370 0
-375 501 370 0
377 -103 0
377 -101 0
-377 103 101 0
378 -98 0
378 -104 0
-378 98 104 0
502 -441 0
502 -93 0
-502 441 93 0
380 -502 0
380 -102 0
-380 502 102 0
382 -102 0
382 -100 0
-382 102 100 0
384 -91 0
384 -99 0
-384 91 99 0
392 -19 0
392 -100 0
-392 19 100 0
503 -162 0
503 -80 0
-503 162 80 0
396 -503 0
396 -106 0
-396 503 106 0
504 -2 0
504 -99 0
-504 2 99 0
400 -504 0
400 -104 0
-400 504 104 0
505 -102 0
505 -103 0
-505 102 103 0
403 -505 0
403 -98 0
-403 505 98 0
405 -132 0
405 -134 0
-405 132 134 0
407 -104 0
407 -96 0
-407 104 96 0
506 -102 0
506 -104 0
-506 102 104 0
409 -506 0
409 -96 0
-409 506 96 0
507 -101 0
507 -103 0
-507 101 103 0
411 -507 0
411 -96 0
-411 507 96 0
-508 101 0
-508 103 0
508 -101 -103 0
-412 508 0
-412 95 0
412 -508 -95 0
-509 103 0
-509 95 0
509 -103 -95 0
-415 509 0
-415 98 0
415 -509 -98 0
-510 102 0
-510 104 0
510 -102 -104 0
-416 510 0
-416 95 0
416 -510 -95 0
417 -126 0
417 -128 0
-417 126 128 0
-511 100 0
-511 101 0
511 -100 -101 0
-418 511 0
-418 103 0
418 -511 -103 0
-512 102 0
-512 104 0
512 -102 -104 0
-419 512 0
-419 95 0
419 -512 -95 0
513 -162 0
513 -79 0
-513 162 79 0
421 -513 0
421 -106 0
-421 513 106 0
-514 2 0
-514 99 0
514 -2 -99 0
-423 514 0
-423 101 0
423 -514 -101 0
-515 365 0
-515 2 0
515 -365 -2 0
-425 515 0
-425 101 0
425 -515 -101 0
516 -224 0
516 -226 0
-516 224 226 0
426 -516 0
426 -227 0
-426 516 227 0
-517 351 0
-517 352 0
517 -351 -352 0
-428 517 0
-428 353 0
428 -517 -353 0
-429 103 0
-429 95 0
429 -103 -95 0
-518 379 0
-518 381 0
518 -379 -381 0
-430 518 0
-430 383 0
430 -518 -383 0
-519 386 0
-519 387 0
519 -386 -387 0
-432 519 0
-432 388 0
432 -519 -388 0
-520 347 0
-520 349 0
520 -347 -349 0
-434 520 0
-434 350 0
434 -520 -350 0
-521 99 0
-521 102 0
521 -99 -102 0
-435 521 0
-435 104 0
435 -521 -104 0
-522 99 0
-522 101 0
522 -99 -101 0
-436 522 0
-436 104 0
436 -522 -104 0
437 -95 0
437 -93 0
-437 95 93 0
-523 100 0
-523 101 0
523 -100 -101 0
-438 523 0
-438 104 0
438 -523 -104 0
-524 100 0
-524 102 0
524 -100 -102 0
-439 524 0
-439 104 0
439 -524 -104 0
-525 103 0
-525 95 0
525 -103 -95 0
-440 525 0
-440 94 0
440 -525 -94 0
-526 97 0
-526 162 0
526 -97 -162 0
-443 526 0
-443 105 0
443 -526 -105 0
-527 99 0
-527 102 0
527 -99 -102 0
-445 527 0
-445 104 0
445 -527 -104 0
-528 102 0
-528 104 0
528 -102 -104 0
-446 528 0
-446 95 0
446 -528 -95 0
-529 99 0
-529 102 0
529 -99 -102 0
-447 529 0
-447 104 0
447 -529 -104 0
-530 99 0
-530 101 0
530 -99 -101 0
-448 530 0
-448 104 0
448 -530 -104 0
